%%%mzn-stat: initTime=0.018879441
%%%mzn-stat: objective=1226
%%%mzn-stat: nodes=13974
%%%mzn-stat: restarts=3
%%%mzn-stat: peakDepth=1118
%%%mzn-stat: solveTime=9.648021057
%%%mzn-stat: variables=1801
%%%mzn-stat: propagators=1455
%%%mzn-stat: failures=10878
%%%mzn-stat: propagations=432907
%%%mzn-stat: nogoods=10878
%%%mzn-stat: AverageConflictSize=15.978672550101122
%%%mzn-stat: NumUnitNogoodsLearned=169
%%%mzn-stat: AverageLearnedNogoodLength=32.497425997426
%%%mzn-stat: AverageBacktrackAmount=0
%%%mzn-stat: AverageLbd=16.038701967273397
%%%mzn-stat-end
maxleg = 1226;
succ = array1d(1..150,[81, 121, 93, 66, 51, 109, 80, 56, 25, 112, 38, 125, 55, 24, 57, 106, 68, 62, 126, 15, 28, 89, 143, 42, 30, 70, 69, 133, 148, 23, 67, 115, 138, 19, 77, 111, 118, 78, 21, 64, 141, 128, 52, 98, 91, 101, 120, 73, 17, 43, 50, 16, 110, 114, 53, 5, 96, 6, 108, 123, 47, 83, 94, 72, 31, 124, 33, 10, 46, 127, 135, 74, 36, 41, 86, 29, 60, 59, 61, 1, 85, 144, 134, 150, 105, 119, 54, 7, 63, 142, 20, 75, 18, 99, 49, 102, 48, 103, 87, 139, 58, 82, 90, 12, 4, 92, 116, 14, 44, 117, 32, 146, 122, 8, 45, 88, 131, 136, 145, 100, 95, 39, 79, 35, 27, 40, 137, 76, 71, 34, 2, 37, 3, 132, 11, 149, 140, 130, 26, 147, 104, 107, 97, 65, 113, 9, 84, 22, 13, 129]);
% time elapsed: 14.30 s
----------
%%%mzn-stat: initTime=0.018879441
%%%mzn-stat: objective=170
%%%mzn-stat: nodes=15261
%%%mzn-stat: restarts=3
%%%mzn-stat: peakDepth=1187
%%%mzn-stat: solveTime=9.723874238
%%%mzn-stat: variables=1801
%%%mzn-stat: propagators=1455
%%%mzn-stat: failures=10888
%%%mzn-stat: propagations=436141
%%%mzn-stat: nogoods=10888
%%%mzn-stat: AverageConflictSize=15.982274063188832
%%%mzn-stat: NumUnitNogoodsLearned=169
%%%mzn-stat: AverageLearnedNogoodLength=32.49384643644379
%%%mzn-stat: AverageBacktrackAmount=0
%%%mzn-stat: AverageLbd=16.041421748714182
%%%mzn-stat-end
maxleg = 170;
succ = array1d(1..150,[81, 93, 112, 66, 51, 109, 80, 96, 137, 2, 38, 125, 55, 24, 57, 52, 68, 9, 126, 15, 39, 89, 143, 42, 30, 70, 21, 141, 148, 23, 67, 45, 138, 19, 77, 136, 118, 83, 85, 64, 103, 128, 16, 98, 91, 101, 120, 73, 17, 43, 50, 47, 110, 114, 53, 5, 54, 6, 78, 123, 56, 18, 94, 72, 31, 124, 33, 10, 28, 140, 135, 74, 36, 41, 86, 29, 60, 14, 61, 1, 122, 144, 134, 150, 105, 106, 115, 7, 63, 142, 20, 46, 25, 99, 49, 102, 48, 69, 87, 121, 58, 82, 90, 12, 4, 92, 116, 132, 44, 117, 32, 62, 119, 8, 111, 88, 131, 97, 145, 100, 146, 113, 79, 35, 27, 40, 139, 76, 71, 34, 133, 37, 3, 59, 11, 149, 26, 130, 95, 147, 104, 107, 108, 65, 75, 127, 84, 22, 13, 129]);
% time elapsed: 14.38 s
----------
==========
% time elapsed: 14.38 s
%%%mzn-stat: initTime=0.018879441
%%%mzn-stat: objective=170
%%%mzn-stat: nodes=15261
%%%mzn-stat: restarts=3
%%%mzn-stat: peakDepth=1187
%%%mzn-stat: solveTime=9.723891987
%%%mzn-stat: variables=1801
%%%mzn-stat: propagators=1455
%%%mzn-stat: failures=10888
%%%mzn-stat: propagations=436141
%%%mzn-stat: nogoods=10888
%%%mzn-stat: AverageConflictSize=15.982274063188832
%%%mzn-stat: NumUnitNogoodsLearned=169
%%%mzn-stat: AverageLearnedNogoodLength=32.49384643644379
%%%mzn-stat: AverageBacktrackAmount=0
%%%mzn-stat: AverageLbd=16.041421748714182
%%%mzn-stat-end
